(set-info :source |printed by MathSAT|)
(declare-fun |!{$(in_main#0)<N>}| () Int)
(declare-fun |!{$(in_main#0)<N>}.next| () Int)
(declare-fun |!{$(in_main#0)<i>}| () Int)
(declare-fun |!{$(in_main#0)<i>}.next| () Int)
(declare-fun |!{$(in_main#0)<j>}| () Int)
(declare-fun |!{$(in_main#0)<j>}.next| () Int)
(declare-fun |!{$(in_main#0)<max>}| () Int)
(declare-fun |!{$(in_main#0)<max>}.next| () Int)
(declare-fun |!{$(in_main#0)<x>}| () Int)
(declare-fun |!{$(in_main#0)<x>}.next| () Int)
(declare-fun |!{$(in_main#0)<a.1>}| () (Array Int Int))
(declare-fun |!{$(in_main#0)<a.1>}.next| () (Array Int Int))
(declare-fun |!{$(in_main#0)<$(in___VERIFIER_nondet_int#0)<h#<__VERIFIER_nondet_int.return>>>}| () Int)
(declare-fun |!{$(in_main#0)<$(in___VERIFIER_nondet_int#1)<h#<__VERIFIER_nondet_int.return>>>}| () Int)
(declare-fun !pc () Int)
(declare-fun !pc.next () Int)
(declare-fun |%{$(in_main#0)<i>}#1| () Int)
(declare-fun |%{$(in_main#0)<x>}#1| () Int)
(declare-fun |%{$(in_main#0)<a.1>}#1| () (Array Int Int))
(declare-fun |%{$(in_main#0)<max>}#2| () Int)
(define-fun .def_32 () Int (! !pc :next !pc.next))
(define-fun .def_35 () Bool (! (= .def_32 2) :init true))
(define-fun .def_180 () Bool (= .def_32 26))
(define-fun .def_153 () Bool (= !pc.next 46))
(define-fun .def_183 () Bool (and .def_153 .def_180))
(define-fun .def_173 () Bool (= |!{$(in_main#0)<i>}.next| 0))
(define-fun .def_8 () Int (! |!{$(in_main#0)<N>}| :next |!{$(in_main#0)<N>}.next|))
(define-fun .def_73 () Bool (= .def_8 |!{$(in_main#0)<N>}.next|))
(define-fun .def_174 () Bool (and .def_73 .def_173))
(define-fun .def_12 () Int (! |!{$(in_main#0)<j>}| :next |!{$(in_main#0)<j>}.next|))
(define-fun .def_77 () Bool (= .def_12 |!{$(in_main#0)<j>}.next|))
(define-fun .def_175 () Bool (and .def_77 .def_174))
(define-fun .def_14 () Int (! |!{$(in_main#0)<max>}| :next |!{$(in_main#0)<max>}.next|))
(define-fun .def_79 () Bool (= .def_14 |!{$(in_main#0)<max>}.next|))
(define-fun .def_176 () Bool (and .def_79 .def_175))
(define-fun .def_16 () Int (! |!{$(in_main#0)<x>}| :next |!{$(in_main#0)<x>}.next|))
(define-fun .def_81 () Bool (= .def_16 |!{$(in_main#0)<x>}.next|))
(define-fun .def_177 () Bool (and .def_81 .def_176))
(define-fun .def_18 () (Array Int Int) (! |!{$(in_main#0)<a.1>}| :next |!{$(in_main#0)<a.1>}.next|))
(define-fun .def_83 () Bool (= .def_18 |!{$(in_main#0)<a.1>}.next|))
(define-fun .def_178 () Bool (and .def_83 .def_177))
(define-fun .def_160 () Bool (<= .def_8 .def_12))
(define-fun .def_179 () Bool (and .def_160 .def_178))
(define-fun .def_184 () Bool (and .def_179 .def_183))
(define-fun .def_60 () Bool (= !pc.next 26))
(define-fun .def_181 () Bool (and .def_60 .def_180))
(define-fun .def_162 () (Array Int Int) (store .def_18 .def_12 |!{$(in_main#0)<$(in___VERIFIER_nondet_int#1)<h#<__VERIFIER_nondet_int.return>>>}|))
(define-fun .def_170 () Bool (= |!{$(in_main#0)<a.1>}.next| .def_162))
(define-fun .def_164 () Int (* (- 1) |!{$(in_main#0)<j>}.next|))
(define-fun .def_165 () Int (+ .def_12 .def_164))
(define-fun .def_166 () Bool (= .def_165 (- 1)))
(define-fun .def_10 () Int (! |!{$(in_main#0)<i>}| :next |!{$(in_main#0)<i>}.next|))
(define-fun .def_75 () Bool (= .def_10 |!{$(in_main#0)<i>}.next|))
(define-fun .def_86 () Bool (and .def_73 .def_75))
(define-fun .def_167 () Bool (and .def_86 .def_166))
(define-fun .def_168 () Bool (and .def_79 .def_167))
(define-fun .def_169 () Bool (and .def_81 .def_168))
(define-fun .def_171 () Bool (and .def_169 .def_170))
(define-fun .def_161 () Bool (not .def_160))
(define-fun .def_172 () Bool (and .def_161 .def_171))
(define-fun .def_182 () Bool (and .def_172 .def_181))
(define-fun .def_185 () Bool (or .def_182 .def_184))
(define-fun .def_152 () Bool (= .def_32 46))
(define-fun .def_109 () Bool (= !pc.next 68))
(define-fun .def_156 () Bool (and .def_109 .def_152))
(define-fun .def_147 () Bool (= |!{$(in_main#0)<x>}.next| 0))
(define-fun .def_87 () Bool (and .def_77 .def_86))
(define-fun .def_88 () Bool (and .def_79 .def_87))
(define-fun .def_148 () Bool (and .def_88 .def_147))
(define-fun .def_149 () Bool (and .def_83 .def_148))
(define-fun .def_120 () Bool (<= .def_8 .def_10))
(define-fun .def_150 () Bool (and .def_120 .def_149))
(define-fun .def_157 () Bool (and .def_150 .def_156))
(define-fun .def_154 () Bool (and .def_152 .def_153))
(define-fun .def_141 () Bool (= |!{$(in_main#0)<max>}.next| |%{$(in_main#0)<max>}#2|))
(define-fun .def_136 () Int (* (- 1) |!{$(in_main#0)<i>}.next|))
(define-fun .def_137 () Int (+ .def_10 .def_136))
(define-fun .def_138 () Bool (= .def_137 (- 1)))
(define-fun .def_139 () Bool (and .def_73 .def_138))
(define-fun .def_140 () Bool (and .def_77 .def_139))
(define-fun .def_142 () Bool (and .def_140 .def_141))
(define-fun .def_143 () Bool (and .def_81 .def_142))
(define-fun .def_144 () Bool (and .def_83 .def_143))
(define-fun .def_122 () Int (select .def_18 .def_10))
(define-fun .def_130 () Bool (= .def_122 |%{$(in_main#0)<max>}#2|))
(define-fun .def_123 () Bool (<= .def_122 .def_14))
(define-fun .def_124 () Bool (not .def_123))
(define-fun .def_132 () Bool (and .def_124 .def_130))
(define-fun .def_129 () Bool (= .def_14 |%{$(in_main#0)<max>}#2|))
(define-fun .def_131 () Bool (and .def_123 .def_129))
(define-fun .def_133 () Bool (or .def_131 .def_132))
(define-fun .def_145 () Bool (and .def_133 .def_144))
(define-fun .def_121 () Bool (not .def_120))
(define-fun .def_146 () Bool (and .def_121 .def_145))
(define-fun .def_155 () Bool (and .def_146 .def_154))
(define-fun .def_158 () Bool (or .def_155 .def_157))
(define-fun .def_113 () Bool (= !pc.next 0))
(define-fun .def_104 () Bool (= .def_32 68))
(define-fun .def_114 () Bool (and .def_104 .def_113))
(define-fun .def_63 () Bool (<= .def_8 .def_16))
(define-fun .def_97 () Bool (and .def_63 .def_73))
(define-fun .def_98 () Bool (and .def_75 .def_97))
(define-fun .def_99 () Bool (and .def_77 .def_98))
(define-fun .def_100 () Bool (and .def_79 .def_99))
(define-fun .def_101 () Bool (and .def_81 .def_100))
(define-fun .def_102 () Bool (and .def_83 .def_101))
(define-fun .def_115 () Bool (and .def_102 .def_114))
(define-fun .def_110 () Bool (and .def_104 .def_109))
(define-fun .def_90 () Int (* (- 1) |!{$(in_main#0)<x>}.next|))
(define-fun .def_91 () Int (+ .def_16 .def_90))
(define-fun .def_92 () Bool (= .def_91 (- 1)))
(define-fun .def_93 () Bool (and .def_88 .def_92))
(define-fun .def_94 () Bool (and .def_83 .def_93))
(define-fun .def_65 () Int (select .def_18 .def_16))
(define-fun .def_66 () Bool (<= .def_65 .def_14))
(define-fun .def_67 () Int (ite .def_66 1 0))
(define-fun .def_68 () Bool (= .def_67 0))
(define-fun .def_69 () Bool (not .def_68))
(define-fun .def_95 () Bool (and .def_69 .def_94))
(define-fun .def_64 () Bool (not .def_63))
(define-fun .def_96 () Bool (and .def_64 .def_95))
(define-fun .def_111 () Bool (and .def_96 .def_110))
(define-fun .def_106 () Bool (= !pc.next 88))
(define-fun .def_107 () Bool (and .def_104 .def_106))
(define-fun .def_74 () Bool (and .def_68 .def_73))
(define-fun .def_76 () Bool (and .def_74 .def_75))
(define-fun .def_78 () Bool (and .def_76 .def_77))
(define-fun .def_80 () Bool (and .def_78 .def_79))
(define-fun .def_82 () Bool (and .def_80 .def_81))
(define-fun .def_84 () Bool (and .def_82 .def_83))
(define-fun .def_85 () Bool (and .def_64 .def_84))
(define-fun .def_108 () Bool (and .def_85 .def_107))
(define-fun .def_112 () Bool (or .def_108 .def_111))
(define-fun .def_116 () Bool (or .def_112 .def_115))
(define-fun .def_61 () Bool (and .def_35 .def_60))
(define-fun .def_57 () Bool (= |!{$(in_main#0)<a.1>}.next| |%{$(in_main#0)<a.1>}#1|))
(define-fun .def_55 () Bool (= |!{$(in_main#0)<x>}.next| |%{$(in_main#0)<x>}#1|))
(define-fun .def_53 () Bool (= |!{$(in_main#0)<max>}.next| 0))
(define-fun .def_51 () Bool (= |!{$(in_main#0)<j>}.next| 0))
(define-fun .def_49 () Bool (= |!{$(in_main#0)<i>}.next| |%{$(in_main#0)<i>}#1|))
(define-fun .def_48 () Bool (= |!{$(in_main#0)<N>}.next| |!{$(in_main#0)<$(in___VERIFIER_nondet_int#0)<h#<__VERIFIER_nondet_int.return>>>}|))
(define-fun .def_50 () Bool (and .def_48 .def_49))
(define-fun .def_52 () Bool (and .def_50 .def_51))
(define-fun .def_54 () Bool (and .def_52 .def_53))
(define-fun .def_56 () Bool (and .def_54 .def_55))
(define-fun .def_58 () Bool (and .def_56 .def_57))
(define-fun .def_62 () Bool (and .def_58 .def_61))
(define-fun .def_117 () Bool (or .def_62 .def_116))
(define-fun .def_159 () Bool (or .def_117 .def_158))
(define-fun .def_186 () Bool (! (or .def_159 .def_185) :trans true))
(define-fun .def_118 () Bool (= .def_32 88))
(define-fun .def_187 () Bool (! (not .def_118) :invar-property 0 :invar-property-name ||))
(assert true)
